% Auto-generated by scripts/generate_dzn.py
% problem_type   = regex
% instance       = regex_54
% source_json    = instances_json/1_medium_blowup/regex_54.json
% blowup         = 3.0
% representation = NFA

mode = 1;

var_count = 18;
n_constraints = 2;
Q = 13;
S = 2;
q0 = [1, 1];
F = [{8}, {13}];
weights = [8, 6, 3, 10, 10, 10, 5, 7, 3, 1, 4, 1, 5, 2, 10, 7, 1, 5];
d_dfa = array3d(1..2, 1..13, 1..2, [
  % k = 1
    0, 0,
    0, 0,
    0, 0,
    0, 0,
    0, 0,
    0, 0,
    0, 0,
    0, 0,
    0, 0,
    0, 0,
    0, 0,
    0, 0,
    0, 0,

  % k = 2
    0, 0,
    0, 0,
    0, 0,
    0, 0,
    0, 0,
    0, 0,
    0, 0,
    0, 0,
    0, 0,
    0, 0,
    0, 0,
    0, 0,
    0, 0
]);
d_nfa = array3d(1..2, 1..13, 1..2, [
  % k = 1
    {1, 2}, {1},
    {3}, {},
    {4}, {4},
    {5}, {5},
    {6}, {6},
    {7}, {7},
    {8}, {8},
    {}, {},
    {}, {},
    {}, {},
    {}, {},
    {}, {},
    {}, {},

  % k = 2
    {2}, {1},
    {3}, {2},
    {4}, {3},
    {5}, {4},
    {6}, {5},
    {7}, {6},
    {8}, {7},
    {9}, {8},
    {10}, {9},
    {11}, {10},
    {12}, {11},
    {13}, {12},
    {}, {13}
]);
